CMD:
./solvers/bin/cadical --plain --no-reduce -t 1600 ./data/cnfs//beemelev2f1/beemelev2f1.11.cnf

c --- [ banner ] -------------------------------------------------------------
c 
c CaDiCaL SAT Solver
c Copyright (c) 2016-2024
c A. Biere, M. Fleury, N. Froleyks, K. Fazekas, F. Pollitt, T. Faller
c JKU Linz, University of Freiburg, TU Wien
c 
c Version 2.1.3 5296d3d2a9bf48c154ab2acb5e44625776d821bf
c g++ (Gentoo 12.3.1_p20230526 p2) 12.3.1 20230526 -Wall -Wextra -O3 -DNDEBUG
c Sat Aug 9 07:26:21 PDT 2025 Linux cedar2.int.cedar.computecanada.ca 5.14.0-362.24.2.el9_3.x86_64 x86_64
c 
c --- [ limit ] --------------------------------------------------------------
c 
c setting time limit to 1600 seconds real time (due to '-t 1600')
c 
c --- [ parsing input ] ------------------------------------------------------
c 
c reading DIMACS file from './data/cnfs//beemelev2f1/beemelev2f1.11.cnf'
c opening file to read './data/cnfs//beemelev2f1/beemelev2f1.11.cnf'
c found 'p cnf 21497 62957' header
c parsed 62957 clauses in 0.01 seconds process time
c 
c --- [ options ] ------------------------------------------------------------
c 
c   --compact=false                (different from default 'true')
c   --decompose=false              (different from default 'true')
c   --deduplicate=false            (different from default 'true')
c   --elim=false                   (different from default 'true')
c   --probe=false                  (different from default 'true')
c   --reduce=false                 (different from default 'true')
c   --subsume=false                (different from default 'true')
c   --ternary=false                (different from default 'true')
c   --transred=false               (different from default 'true')
c   --vivify=false                 (different from default 'true')
c 
c --- [ solving ] ------------------------------------------------------------
c 
c time measured in process time since initialization
c 
c  seconds  reductions  redundant  irredundant
c         MB    restarts       trail     variables
c          level   conflicts       glue       remaining
c 
c *  0.01 13  0 0   0    0    0  0% 0 55008 8594 40%
c {  0.01 13  0 0   0    0    0  0% 0 55008 8594 40%
c i  0.01 13  1 0   0    1    0 63% 0 55008 8578 40%
c i  0.02 13 31 0   0   38   33 71% 2 55008 8577 40%
c i  0.02 13 29 0   0   44   38 71% 2 55008 8575 40%
c i  0.02 13 25 0   0   55   45 70% 2 55008 8565 40%
c }  0.02 13 24 0   0   58   46 69% 2 55008 7752 36%
c 0  0.02 13 24 0   0   58   46 69% 2 55008 7752 36%
c 
c --- [ result ] -------------------------------------------------------------
c 
s UNSATISFIABLE
c 
c --- [ run-time profiling ] -------------------------------------------------
c 
c process time taken by individual solving procedures
c (percentage relative to process time for solving)
c 
c         0.01  201.62% parse
c         0.01   97.33% search
c         0.00   53.10% lucky
c         0.00   44.02% unstable
c         0.00    0.00% simplify
c   =================================
c         0.01   31.92% solve
c 
c last line shows process time for solving
c (percentage relative to total process time)
c 
c --- [ statistics ] ---------------------------------------------------------
c 
c chronological:                26        44.83 %  of conflicts
c conflicts:                    58     11203.40    per second
c decisions:                   101     19509.37    per second
c fixed:                     13745        63.94 %  of all variables
c learned:                      55        94.83 %  per conflict
c learned_lits:                610       100.00 %  learned literals
c minimized:                     0         0.00 %  learned literals
c shrunken:                    108        17.70 %  learned literals
c minishrunken:                 51         8.36 %  learned literals
c otfs:                          4         6.90 %  of conflict
c propagations:              50931         9.84 M  per second
c subsumed:                      4         0.01 %  of all clauses
c strengthened:                  4         0.01 %  of all clauses
c 
c seconds are measured in process time for solving
c 
c --- [ resources ] ----------------------------------------------------------
c 
c total process time since initialization:         0.02    seconds
c total real time since initialization:            0.02    seconds
c maximum resident set size of process:           30.83    MB
c 
c --- [ shutting down ] ------------------------------------------------------
c 
c exit 20
